p cnf 7230 17
-522 -2492 -2722 0
-520 -2450 -2720 0
-518 -2446 -2718 0
522 -2723 0
520 -2721 0
518 -2719 0
2722 2723 0
2720 2721 0
2718 2719 0
2492 -2723 0
2450 -2721 0
2446 -2719 0
-524 -2496 2725 0
-2716 2717 0
2716 -2717 0
2496 -2725 0
524 -2725 0
